c 0.011895418167114258 (encode time in sec)
p cnf 169 1048
1 2 3 11 0
1 2 -3 4 0
1 -2 3 6 0
1 -2 -3 5 0
-1 2 3 7 0
-1 2 -3 8 0
-1 -2 3 9 0
-1 -2 -3 10 0
12 13 14 20 0
12 13 -14 22 0
12 -13 14 16 0
12 -13 -14 15 0
-12 13 14 17 0
-12 13 -14 18 0
-12 -13 14 19 0
-12 -13 -14 21 0
23 24 25 32 0
23 24 -25 27 0
23 -24 25 28 0
23 -24 -25 26 0
-23 24 25 29 0
-23 24 -25 30 0
-23 -24 25 31 0
-23 -24 -25 32 0
33 34 35 1 2 3 12 13 14 36 0
33 34 35 1 2 3 12 13 -14 36 0
33 34 35 1 2 3 12 -13 14 36 0
33 34 35 1 2 3 12 -13 -14 36 0
33 34 35 1 2 3 -12 13 14 0
33 34 35 1 2 3 -12 13 -14 0
33 34 35 1 2 3 -12 -13 14 36 0
33 34 35 1 2 3 -12 -13 -14 0
33 34 35 1 2 -3 12 13 14 36 0
33 34 35 1 2 -3 12 13 -14 39 0
33 34 35 1 2 -3 12 -13 14 38 0
33 34 35 1 2 -3 12 -13 -14 0
33 34 35 1 2 -3 -12 13 14 0
33 34 35 1 2 -3 -12 13 -14 0
33 34 35 1 2 -3 -12 -13 14 0
33 34 35 1 2 -3 -12 -13 -14 36 0
33 34 35 1 -2 3 12 13 14 36 0
33 34 35 1 -2 3 12 13 -14 0
33 34 35 1 -2 3 12 -13 14 0
33 34 35 1 -2 3 12 -13 -14 0
33 34 35 1 -2 3 -12 13 14 0
33 34 35 1 -2 3 -12 13 -14 0
33 34 35 1 -2 3 -12 -13 14 0
33 34 35 1 -2 3 -12 -13 -14 0
33 34 35 1 -2 -3 12 13 14 0
33 34 35 1 -2 -3 12 13 -14 0
33 34 35 1 -2 -3 12 -13 14 0
33 34 35 1 -2 -3 12 -13 -14 0
33 34 35 1 -2 -3 -12 13 14 0
33 34 35 1 -2 -3 -12 13 -14 0
33 34 35 1 -2 -3 -12 -13 14 0
33 34 35 1 -2 -3 -12 -13 -14 36 0
33 34 35 -1 2 3 12 13 14 40 0
33 34 35 -1 2 3 12 13 -14 0
33 34 35 -1 2 3 12 -13 14 0
33 34 35 -1 2 3 12 -13 -14 0
33 34 35 -1 2 3 -12 13 14 0
33 34 35 -1 2 3 -12 13 -14 0
33 34 35 -1 2 3 -12 -13 14 0
33 34 35 -1 2 3 -12 -13 -14 0
33 34 35 -1 2 -3 12 13 14 36 0
33 34 35 -1 2 -3 12 13 -14 0
33 34 35 -1 2 -3 12 -13 14 0
33 34 35 -1 2 -3 12 -13 -14 0
33 34 35 -1 2 -3 -12 13 14 0
33 34 35 -1 2 -3 -12 13 -14 0
33 34 35 -1 2 -3 -12 -13 14 0
33 34 35 -1 2 -3 -12 -13 -14 0
33 34 35 -1 -2 3 12 13 14 36 0
33 34 35 -1 -2 3 12 13 -14 36 0
33 34 35 -1 -2 3 12 -13 14 0
33 34 35 -1 -2 3 12 -13 -14 0
33 34 35 -1 -2 3 -12 13 14 0
33 34 35 -1 -2 3 -12 13 -14 0
33 34 35 -1 -2 3 -12 -13 14 0
33 34 35 -1 -2 3 -12 -13 -14 0
33 34 35 -1 -2 -3 12 13 14 36 0
33 34 35 -1 -2 -3 12 13 -14 36 0
33 34 35 -1 -2 -3 12 -13 14 0
33 34 35 -1 -2 -3 12 -13 -14 0
33 34 35 -1 -2 -3 -12 13 14 36 0
33 34 35 -1 -2 -3 -12 13 -14 0
33 34 35 -1 -2 -3 -12 -13 14 36 0
33 34 35 -1 -2 -3 -12 -13 -14 36 0
33 34 -35 1 2 3 12 13 14 36 0
33 34 -35 1 2 3 12 13 -14 36 0
33 34 -35 1 2 3 12 -13 14 36 0
33 34 -35 1 2 3 12 -13 -14 36 0
33 34 -35 1 2 3 -12 13 14 0
33 34 -35 1 2 3 -12 13 -14 0
33 34 -35 1 2 3 -12 -13 14 36 0
33 34 -35 1 2 3 -12 -13 -14 0
33 34 -35 1 2 -3 12 13 14 36 0
33 34 -35 1 2 -3 12 13 -14 0
33 34 -35 1 2 -3 12 -13 14 41 0
33 34 -35 1 2 -3 12 -13 -14 42 0
33 34 -35 1 2 -3 -12 13 14 0
33 34 -35 1 2 -3 -12 13 -14 0
33 34 -35 1 2 -3 -12 -13 14 0
33 34 -35 1 2 -3 -12 -13 -14 36 0
33 34 -35 1 -2 3 12 13 14 36 0
33 34 -35 1 -2 3 12 13 -14 39 0
33 34 -35 1 -2 3 12 -13 14 43 0
33 34 -35 1 -2 3 12 -13 -14 61 0
33 34 -35 1 -2 3 -12 13 14 0
33 34 -35 1 -2 3 -12 13 -14 0
33 34 -35 1 -2 3 -12 -13 14 0
33 34 -35 1 -2 3 -12 -13 -14 0
33 34 -35 1 -2 -3 12 13 14 39 0
33 34 -35 1 -2 -3 12 13 -14 44 0
33 34 -35 1 -2 -3 12 -13 14 62 0
33 34 -35 1 -2 -3 12 -13 -14 0
33 34 -35 1 -2 -3 -12 13 14 0
33 34 -35 1 -2 -3 -12 13 -14 0
33 34 -35 1 -2 -3 -12 -13 14 0
33 34 -35 1 -2 -3 -12 -13 -14 36 0
33 34 -35 -1 2 3 12 13 14 40 0
33 34 -35 -1 2 3 12 13 -14 42 0
33 34 -35 -1 2 3 12 -13 14 0
33 34 -35 -1 2 3 12 -13 -14 0
33 34 -35 -1 2 3 -12 13 14 0
33 34 -35 -1 2 3 -12 13 -14 0
33 34 -35 -1 2 3 -12 -13 14 0
33 34 -35 -1 2 3 -12 -13 -14 0
33 34 -35 -1 2 -3 12 13 14 36 0
33 34 -35 -1 2 -3 12 13 -14 0
33 34 -35 -1 2 -3 12 -13 14 0
33 34 -35 -1 2 -3 12 -13 -14 0
33 34 -35 -1 2 -3 -12 13 14 0
33 34 -35 -1 2 -3 -12 13 -14 0
33 34 -35 -1 2 -3 -12 -13 14 0
33 34 -35 -1 2 -3 -12 -13 -14 0
33 34 -35 -1 -2 3 12 13 14 36 0
33 34 -35 -1 -2 3 12 13 -14 36 0
33 34 -35 -1 -2 3 12 -13 14 0
33 34 -35 -1 -2 3 12 -13 -14 0
33 34 -35 -1 -2 3 -12 13 14 0
33 34 -35 -1 -2 3 -12 13 -14 0
33 34 -35 -1 -2 3 -12 -13 14 0
33 34 -35 -1 -2 3 -12 -13 -14 0
33 34 -35 -1 -2 -3 12 13 14 36 0
33 34 -35 -1 -2 -3 12 13 -14 36 0
33 34 -35 -1 -2 -3 12 -13 14 0
33 34 -35 -1 -2 -3 12 -13 -14 0
33 34 -35 -1 -2 -3 -12 13 14 36 0
33 34 -35 -1 -2 -3 -12 13 -14 0
33 34 -35 -1 -2 -3 -12 -13 14 36 0
33 34 -35 -1 -2 -3 -12 -13 -14 36 0
33 -34 35 1 2 3 12 13 14 36 0
33 -34 35 1 2 3 12 13 -14 36 0
33 -34 35 1 2 3 12 -13 14 36 0
33 -34 35 1 2 3 12 -13 -14 36 0
33 -34 35 1 2 3 -12 13 14 39 0
33 -34 35 1 2 3 -12 13 -14 39 0
33 -34 35 1 2 3 -12 -13 14 36 0
33 -34 35 1 2 3 -12 -13 -14 0
33 -34 35 1 2 -3 12 13 14 36 0
33 -34 35 1 2 -3 12 13 -14 0
33 -34 35 1 2 -3 12 -13 14 0
33 -34 35 1 2 -3 12 -13 -14 44 0
33 -34 35 1 2 -3 -12 13 14 36 0
33 -34 35 1 2 -3 -12 13 -14 0
33 -34 35 1 2 -3 -12 -13 14 0
33 -34 35 1 2 -3 -12 -13 -14 36 0
33 -34 35 1 -2 3 12 13 14 36 0
33 -34 35 1 -2 3 12 13 -14 0
33 -34 35 1 -2 3 12 -13 14 51 0
33 -34 35 1 -2 3 12 -13 -14 58 0
33 -34 35 1 -2 3 -12 13 14 49 0
33 -34 35 1 -2 3 -12 13 -14 0
33 -34 35 1 -2 3 -12 -13 14 0
33 -34 35 1 -2 3 -12 -13 -14 0
33 -34 35 1 -2 -3 12 13 14 0
33 -34 35 1 -2 -3 12 13 -14 42 0
33 -34 35 1 -2 -3 12 -13 14 45 0
33 -34 35 1 -2 -3 12 -13 -14 63 0
33 -34 35 1 -2 -3 -12 13 14 0
33 -34 35 1 -2 -3 -12 13 -14 0
33 -34 35 1 -2 -3 -12 -13 14 0
33 -34 35 1 -2 -3 -12 -13 -14 36 0
33 -34 35 -1 2 3 12 13 14 0
33 -34 35 -1 2 3 12 13 -14 44 0
33 -34 35 -1 2 3 12 -13 14 51 0
33 -34 35 -1 2 3 12 -13 -14 73 0
33 -34 35 -1 2 3 -12 13 14 0
33 -34 35 -1 2 3 -12 13 -14 0
33 -34 35 -1 2 3 -12 -13 14 0
33 -34 35 -1 2 3 -12 -13 -14 0
33 -34 35 -1 2 -3 12 13 14 36 0
33 -34 35 -1 2 -3 12 13 -14 39 0
33 -34 35 -1 2 -3 12 -13 14 55 0
33 -34 35 -1 2 -3 12 -13 -14 0
33 -34 35 -1 2 -3 -12 13 14 0
33 -34 35 -1 2 -3 -12 13 -14 0
33 -34 35 -1 2 -3 -12 -13 14 0
33 -34 35 -1 2 -3 -12 -13 -14 0
33 -34 35 -1 -2 3 12 13 14 36 0
33 -34 35 -1 -2 3 12 13 -14 36 0
33 -34 35 -1 -2 3 12 -13 14 0
33 -34 35 -1 -2 3 12 -13 -14 0
33 -34 35 -1 -2 3 -12 13 14 0
33 -34 35 -1 -2 3 -12 13 -14 0
33 -34 35 -1 -2 3 -12 -13 14 0
33 -34 35 -1 -2 3 -12 -13 -14 0
33 -34 35 -1 -2 -3 12 13 14 36 0
33 -34 35 -1 -2 -3 12 13 -14 36 0
33 -34 35 -1 -2 -3 12 -13 14 0
33 -34 35 -1 -2 -3 12 -13 -14 0
33 -34 35 -1 -2 -3 -12 13 14 36 0
33 -34 35 -1 -2 -3 -12 13 -14 0
33 -34 35 -1 -2 -3 -12 -13 14 36 0
33 -34 35 -1 -2 -3 -12 -13 -14 36 0
33 -34 -35 1 2 3 12 13 14 36 0
33 -34 -35 1 2 3 12 13 -14 36 0
33 -34 -35 1 2 3 12 -13 14 36 0
33 -34 -35 1 2 3 12 -13 -14 36 0
33 -34 -35 1 2 3 -12 13 14 0
33 -34 -35 1 2 3 -12 13 -14 0
33 -34 -35 1 2 3 -12 -13 14 36 0
33 -34 -35 1 2 3 -12 -13 -14 0
33 -34 -35 1 2 -3 12 13 14 36 0
33 -34 -35 1 2 -3 12 13 -14 0
33 -34 -35 1 2 -3 12 -13 14 0
33 -34 -35 1 2 -3 12 -13 -14 0
33 -34 -35 1 2 -3 -12 13 14 46 0
33 -34 -35 1 2 -3 -12 13 -14 44 0
33 -34 -35 1 2 -3 -12 -13 14 0
33 -34 -35 1 2 -3 -12 -13 -14 36 0
33 -34 -35 1 -2 3 12 13 14 36 0
33 -34 -35 1 -2 3 12 13 -14 0
33 -34 -35 1 -2 3 12 -13 14 0
33 -34 -35 1 -2 3 12 -13 -14 49 0
33 -34 -35 1 -2 3 -12 13 14 47 0
33 -34 -35 1 -2 3 -12 13 -14 43 0
33 -34 -35 1 -2 3 -12 -13 14 0
33 -34 -35 1 -2 3 -12 -13 -14 0
33 -34 -35 1 -2 -3 12 13 14 0
33 -34 -35 1 -2 -3 12 13 -14 0
33 -34 -35 1 -2 -3 12 -13 14 74 0
33 -34 -35 1 -2 -3 12 -13 -14 65 0
33 -34 -35 1 -2 -3 -12 13 14 68 0
33 -34 -35 1 -2 -3 -12 13 -14 0
33 -34 -35 1 -2 -3 -12 -13 14 0
33 -34 -35 1 -2 -3 -12 -13 -14 36 0
33 -34 -35 -1 2 3 12 13 14 0
33 -34 -35 -1 2 3 12 13 -14 0
33 -34 -35 -1 2 3 12 -13 14 43 0
33 -34 -35 -1 2 3 12 -13 -14 66 0
33 -34 -35 -1 2 3 -12 13 14 53 0
33 -34 -35 -1 2 3 -12 13 -14 0
33 -34 -35 -1 2 3 -12 -13 14 0
33 -34 -35 -1 2 3 -12 -13 -14 0
33 -34 -35 -1 2 -3 12 13 14 36 0
33 -34 -35 -1 2 -3 12 13 -14 0
33 -34 -35 -1 2 -3 12 -13 14 70 0
33 -34 -35 -1 2 -3 12 -13 -14 64 0
33 -34 -35 -1 2 -3 -12 13 14 0
33 -34 -35 -1 2 -3 -12 13 -14 0
33 -34 -35 -1 2 -3 -12 -13 14 0
33 -34 -35 -1 2 -3 -12 -13 -14 0
33 -34 -35 -1 -2 3 12 13 14 36 0
33 -34 -35 -1 -2 3 12 13 -14 36 0
33 -34 -35 -1 -2 3 12 -13 14 0
33 -34 -35 -1 -2 3 12 -13 -14 0
33 -34 -35 -1 -2 3 -12 13 14 0
33 -34 -35 -1 -2 3 -12 13 -14 0
33 -34 -35 -1 -2 3 -12 -13 14 0
33 -34 -35 -1 -2 3 -12 -13 -14 0
33 -34 -35 -1 -2 -3 12 13 14 36 0
33 -34 -35 -1 -2 -3 12 13 -14 36 0
33 -34 -35 -1 -2 -3 12 -13 14 0
33 -34 -35 -1 -2 -3 12 -13 -14 0
33 -34 -35 -1 -2 -3 -12 13 14 36 0
33 -34 -35 -1 -2 -3 -12 13 -14 0
33 -34 -35 -1 -2 -3 -12 -13 14 36 0
33 -34 -35 -1 -2 -3 -12 -13 -14 36 0
-33 34 35 1 2 3 12 13 14 36 0
-33 34 35 1 2 3 12 13 -14 36 0
-33 34 35 1 2 3 12 -13 14 36 0
-33 34 35 1 2 3 12 -13 -14 36 0
-33 34 35 1 2 3 -12 13 14 0
-33 34 35 1 2 3 -12 13 -14 0
-33 34 35 1 2 3 -12 -13 14 36 0
-33 34 35 1 2 3 -12 -13 -14 39 0
-33 34 35 1 2 -3 12 13 14 36 0
-33 34 35 1 2 -3 12 13 -14 0
-33 34 35 1 2 -3 12 -13 14 0
-33 34 35 1 2 -3 12 -13 -14 0
-33 34 35 1 2 -3 -12 13 14 0
-33 34 35 1 2 -3 -12 13 -14 42 0
-33 34 35 1 2 -3 -12 -13 14 48 0
-33 34 35 1 2 -3 -12 -13 -14 36 0
-33 34 35 1 -2 3 12 13 14 36 0
-33 34 35 1 -2 3 12 13 -14 0
-33 34 35 1 -2 3 12 -13 14 0
-33 34 35 1 -2 3 12 -13 -14 0
-33 34 35 1 -2 3 -12 13 14 75 0
-33 34 35 1 -2 3 -12 13 -14 51 0
-33 34 35 1 -2 3 -12 -13 14 40 0
-33 34 35 1 -2 3 -12 -13 -14 0
-33 34 35 1 -2 -3 12 13 14 0
-33 34 35 1 -2 -3 12 13 -14 0
-33 34 35 1 -2 -3 12 -13 14 0
-33 34 35 1 -2 -3 12 -13 -14 57 0
-33 34 35 1 -2 -3 -12 13 14 54 0
-33 34 35 1 -2 -3 -12 13 -14 41 0
-33 34 35 1 -2 -3 -12 -13 14 50 0
-33 34 35 1 -2 -3 -12 -13 -14 36 0
-33 34 35 -1 2 3 12 13 14 0
-33 34 35 -1 2 3 12 13 -14 0
-33 34 35 -1 2 3 12 -13 14 0
-33 34 35 -1 2 3 12 -13 -14 56 0
-33 34 35 -1 2 3 -12 13 14 52 0
-33 34 35 -1 2 3 -12 13 -14 69 0
-33 34 35 -1 2 3 -12 -13 14 0
-33 34 35 -1 2 3 -12 -13 -14 0
-33 34 35 -1 2 -3 12 13 14 36 0
-33 34 35 -1 2 -3 12 13 -14 0
-33 34 35 -1 2 -3 12 -13 14 0
-33 34 35 -1 2 -3 12 -13 -14 72 0
-33 34 35 -1 2 -3 -12 13 14 60 0
-33 34 35 -1 2 -3 -12 13 -14 0
-33 34 35 -1 2 -3 -12 -13 14 0
-33 34 35 -1 2 -3 -12 -13 -14 0
-33 34 35 -1 -2 3 12 13 14 36 0
-33 34 35 -1 -2 3 12 13 -14 36 0
-33 34 35 -1 -2 3 12 -13 14 39 0
-33 34 35 -1 -2 3 12 -13 -14 39 0
-33 34 35 -1 -2 3 -12 13 14 0
-33 34 35 -1 -2 3 -12 13 -14 0
-33 34 35 -1 -2 3 -12 -13 14 0
-33 34 35 -1 -2 3 -12 -13 -14 0
-33 34 35 -1 -2 -3 12 13 14 36 0
-33 34 35 -1 -2 -3 12 13 -14 36 0
-33 34 35 -1 -2 -3 12 -13 14 0
-33 34 35 -1 -2 -3 12 -13 -14 0
-33 34 35 -1 -2 -3 -12 13 14 36 0
-33 34 35 -1 -2 -3 -12 13 -14 0
-33 34 35 -1 -2 -3 -12 -13 14 36 0
-33 34 35 -1 -2 -3 -12 -13 -14 36 0
-33 34 -35 1 2 3 12 13 14 36 0
-33 34 -35 1 2 3 12 13 -14 36 0
-33 34 -35 1 2 3 12 -13 14 36 0
-33 34 -35 1 2 3 12 -13 -14 36 0
-33 34 -35 1 2 3 -12 13 14 0
-33 34 -35 1 2 3 -12 13 -14 0
-33 34 -35 1 2 3 -12 -13 14 36 0
-33 34 -35 1 2 3 -12 -13 -14 0
-33 34 -35 1 2 -3 12 13 14 36 0
-33 34 -35 1 2 -3 12 13 -14 0
-33 34 -35 1 2 -3 12 -13 14 0
-33 34 -35 1 2 -3 12 -13 -14 0
-33 34 -35 1 2 -3 -12 13 14 0
-33 34 -35 1 2 -3 -12 13 -14 0
-33 34 -35 1 2 -3 -12 -13 14 50 0
-33 34 -35 1 2 -3 -12 -13 -14 36 0
-33 34 -35 1 -2 3 12 13 14 36 0
-33 34 -35 1 -2 3 12 13 -14 0
-33 34 -35 1 -2 3 12 -13 14 0
-33 34 -35 1 -2 3 12 -13 -14 0
-33 34 -35 1 -2 3 -12 13 14 0
-33 34 -35 1 -2 3 -12 13 -14 0
-33 34 -35 1 -2 3 -12 -13 14 40 0
-33 34 -35 1 -2 3 -12 -13 -14 0
-33 34 -35 1 -2 -3 12 13 14 0
-33 34 -35 1 -2 -3 12 13 -14 0
-33 34 -35 1 -2 -3 12 -13 14 0
-33 34 -35 1 -2 -3 12 -13 -14 0
-33 34 -35 1 -2 -3 -12 13 14 73 0
-33 34 -35 1 -2 -3 -12 13 -14 76 0
-33 34 -35 1 -2 -3 -12 -13 14 40 0
-33 34 -35 1 -2 -3 -12 -13 -14 36 0
-33 34 -35 -1 2 3 12 13 14 0
-33 34 -35 -1 2 3 12 13 -14 0
-33 34 -35 -1 2 3 12 -13 14 0
-33 34 -35 -1 2 3 12 -13 -14 0
-33 34 -35 -1 2 3 -12 13 14 67 0
-33 34 -35 -1 2 3 -12 13 -14 59 0
-33 34 -35 -1 2 3 -12 -13 14 40 0
-33 34 -35 -1 2 3 -12 -13 -14 0
-33 34 -35 -1 2 -3 12 13 14 36 0
-33 34 -35 -1 2 -3 12 13 -14 0
-33 34 -35 -1 2 -3 12 -13 14 0
-33 34 -35 -1 2 -3 12 -13 -14 0
-33 34 -35 -1 2 -3 -12 13 14 71 0
-33 34 -35 -1 2 -3 -12 13 -14 42 0
-33 34 -35 -1 2 -3 -12 -13 14 40 0
-33 34 -35 -1 2 -3 -12 -13 -14 0
-33 34 -35 -1 -2 3 12 13 14 36 0
-33 34 -35 -1 -2 3 12 13 -14 36 0
-33 34 -35 -1 -2 3 12 -13 14 0
-33 34 -35 -1 -2 3 12 -13 -14 0
-33 34 -35 -1 -2 3 -12 13 14 39 0
-33 34 -35 -1 -2 3 -12 13 -14 0
-33 34 -35 -1 -2 3 -12 -13 14 0
-33 34 -35 -1 -2 3 -12 -13 -14 0
-33 34 -35 -1 -2 -3 12 13 14 36 0
-33 34 -35 -1 -2 -3 12 13 -14 36 0
-33 34 -35 -1 -2 -3 12 -13 14 39 0
-33 34 -35 -1 -2 -3 12 -13 -14 39 0
-33 34 -35 -1 -2 -3 -12 13 14 36 0
-33 34 -35 -1 -2 -3 -12 13 -14 0
-33 34 -35 -1 -2 -3 -12 -13 14 36 0
-33 34 -35 -1 -2 -3 -12 -13 -14 36 0
-33 -34 35 1 2 3 12 13 14 36 0
-33 -34 35 1 2 3 12 13 -14 36 0
-33 -34 35 1 2 3 12 -13 14 36 0
-33 -34 35 1 2 3 12 -13 -14 36 0
-33 -34 35 1 2 3 -12 13 14 0
-33 -34 35 1 2 3 -12 13 -14 0
-33 -34 35 1 2 3 -12 -13 14 36 0
-33 -34 35 1 2 3 -12 -13 -14 0
-33 -34 35 1 2 -3 12 13 14 36 0
-33 -34 35 1 2 -3 12 13 -14 0
-33 -34 35 1 2 -3 12 -13 14 0
-33 -34 35 1 2 -3 12 -13 -14 0
-33 -34 35 1 2 -3 -12 13 14 0
-33 -34 35 1 2 -3 -12 13 -14 0
-33 -34 35 1 2 -3 -12 -13 14 0
-33 -34 35 1 2 -3 -12 -13 -14 36 0
-33 -34 35 1 -2 3 12 13 14 36 0
-33 -34 35 1 -2 3 12 13 -14 0
-33 -34 35 1 -2 3 12 -13 14 0
-33 -34 35 1 -2 3 12 -13 -14 0
-33 -34 35 1 -2 3 -12 13 14 0
-33 -34 35 1 -2 3 -12 13 -14 0
-33 -34 35 1 -2 3 -12 -13 14 0
-33 -34 35 1 -2 3 -12 -13 -14 39 0
-33 -34 35 1 -2 -3 12 13 14 0
-33 -34 35 1 -2 -3 12 13 -14 0
-33 -34 35 1 -2 -3 12 -13 14 0
-33 -34 35 1 -2 -3 12 -13 -14 0
-33 -34 35 1 -2 -3 -12 13 14 0
-33 -34 35 1 -2 -3 -12 13 -14 0
-33 -34 35 1 -2 -3 -12 -13 14 50 0
-33 -34 35 1 -2 -3 -12 -13 -14 36 0
-33 -34 35 -1 2 3 12 13 14 0
-33 -34 35 -1 2 3 12 13 -14 0
-33 -34 35 -1 2 3 12 -13 14 0
-33 -34 35 -1 2 3 12 -13 -14 0
-33 -34 35 -1 2 3 -12 13 14 0
-33 -34 35 -1 2 3 -12 13 -14 0
-33 -34 35 -1 2 3 -12 -13 14 40 0
-33 -34 35 -1 2 3 -12 -13 -14 39 0
-33 -34 35 -1 2 -3 12 13 14 36 0
-33 -34 35 -1 2 -3 12 13 -14 0
-33 -34 35 -1 2 -3 12 -13 14 0
-33 -34 35 -1 2 -3 12 -13 -14 0
-33 -34 35 -1 2 -3 -12 13 14 0
-33 -34 35 -1 2 -3 -12 13 -14 44 0
-33 -34 35 -1 2 -3 -12 -13 14 40 0
-33 -34 35 -1 2 -3 -12 -13 -14 0
-33 -34 35 -1 -2 3 12 13 14 36 0
-33 -34 35 -1 -2 3 12 13 -14 36 0
-33 -34 35 -1 -2 3 12 -13 14 0
-33 -34 35 -1 -2 3 12 -13 -14 0
-33 -34 35 -1 -2 3 -12 13 14 0
-33 -34 35 -1 -2 3 -12 13 -14 39 0
-33 -34 35 -1 -2 3 -12 -13 14 39 0
-33 -34 35 -1 -2 3 -12 -13 -14 0
-33 -34 35 -1 -2 -3 12 13 14 36 0
-33 -34 35 -1 -2 -3 12 13 -14 36 0
-33 -34 35 -1 -2 -3 12 -13 14 0
-33 -34 35 -1 -2 -3 12 -13 -14 0
-33 -34 35 -1 -2 -3 -12 13 14 36 0
-33 -34 35 -1 -2 -3 -12 13 -14 39 0
-33 -34 35 -1 -2 -3 -12 -13 14 36 0
-33 -34 35 -1 -2 -3 -12 -13 -14 36 0
-33 -34 -35 1 2 3 12 13 14 36 0
-33 -34 -35 1 2 3 12 13 -14 36 0
-33 -34 -35 1 2 3 12 -13 14 36 0
-33 -34 -35 1 2 3 12 -13 -14 36 0
-33 -34 -35 1 2 3 -12 13 14 0
-33 -34 -35 1 2 3 -12 13 -14 0
-33 -34 -35 1 2 3 -12 -13 14 36 0
-33 -34 -35 1 2 3 -12 -13 -14 0
-33 -34 -35 1 2 -3 12 13 14 36 0
-33 -34 -35 1 2 -3 12 13 -14 0
-33 -34 -35 1 2 -3 12 -13 14 0
-33 -34 -35 1 2 -3 12 -13 -14 0
-33 -34 -35 1 2 -3 -12 13 14 0
-33 -34 -35 1 2 -3 -12 13 -14 0
-33 -34 -35 1 2 -3 -12 -13 14 0
-33 -34 -35 1 2 -3 -12 -13 -14 36 0
-33 -34 -35 1 -2 3 12 13 14 36 0
-33 -34 -35 1 -2 3 12 13 -14 0
-33 -34 -35 1 -2 3 12 -13 14 0
-33 -34 -35 1 -2 3 12 -13 -14 0
-33 -34 -35 1 -2 3 -12 13 14 0
-33 -34 -35 1 -2 3 -12 13 -14 0
-33 -34 -35 1 -2 3 -12 -13 14 0
-33 -34 -35 1 -2 3 -12 -13 -14 0
-33 -34 -35 1 -2 -3 12 13 14 0
-33 -34 -35 1 -2 -3 12 13 -14 0
-33 -34 -35 1 -2 -3 12 -13 14 0
-33 -34 -35 1 -2 -3 12 -13 -14 0
-33 -34 -35 1 -2 -3 -12 13 14 0
-33 -34 -35 1 -2 -3 -12 13 -14 0
-33 -34 -35 1 -2 -3 -12 -13 14 0
-33 -34 -35 1 -2 -3 -12 -13 -14 36 0
-33 -34 -35 -1 2 3 12 13 14 0
-33 -34 -35 -1 2 3 12 13 -14 0
-33 -34 -35 -1 2 3 12 -13 14 0
-33 -34 -35 -1 2 3 12 -13 -14 0
-33 -34 -35 -1 2 3 -12 13 14 0
-33 -34 -35 -1 2 3 -12 13 -14 0
-33 -34 -35 -1 2 3 -12 -13 14 0
-33 -34 -35 -1 2 3 -12 -13 -14 0
-33 -34 -35 -1 2 -3 12 13 14 36 0
-33 -34 -35 -1 2 -3 12 13 -14 0
-33 -34 -35 -1 2 -3 12 -13 14 0
-33 -34 -35 -1 2 -3 12 -13 -14 0
-33 -34 -35 -1 2 -3 -12 13 14 0
-33 -34 -35 -1 2 -3 -12 13 -14 0
-33 -34 -35 -1 2 -3 -12 -13 14 0
-33 -34 -35 -1 2 -3 -12 -13 -14 39 0
-33 -34 -35 -1 -2 3 12 13 14 36 0
-33 -34 -35 -1 -2 3 12 13 -14 36 0
-33 -34 -35 -1 -2 3 12 -13 14 0
-33 -34 -35 -1 -2 3 12 -13 -14 0
-33 -34 -35 -1 -2 3 -12 13 14 0
-33 -34 -35 -1 -2 3 -12 13 -14 0
-33 -34 -35 -1 -2 3 -12 -13 14 0
-33 -34 -35 -1 -2 3 -12 -13 -14 39 0
-33 -34 -35 -1 -2 -3 12 13 14 36 0
-33 -34 -35 -1 -2 -3 12 13 -14 36 0
-33 -34 -35 -1 -2 -3 12 -13 14 0
-33 -34 -35 -1 -2 -3 12 -13 -14 0
-33 -34 -35 -1 -2 -3 -12 13 14 36 0
-33 -34 -35 -1 -2 -3 -12 13 -14 0
-33 -34 -35 -1 -2 -3 -12 -13 14 36 0
-33 -34 -35 -1 -2 -3 -12 -13 -14 36 0
77 78 79 23 24 25 33 34 35 80 0
77 78 79 23 24 25 33 34 -35 126 0
77 78 79 23 24 25 33 -34 35 161 0
77 78 79 23 24 25 33 -34 -35 163 0
77 78 79 23 24 25 -33 34 35 163 0
77 78 79 23 24 25 -33 34 -35 162 0
77 78 79 23 24 25 -33 -34 35 80 0
77 78 79 23 24 25 -33 -34 -35 80 0
77 78 79 23 24 -25 33 34 35 80 0
77 78 79 23 24 -25 33 34 -35 80 0
77 78 79 23 24 -25 33 -34 35 94 0
77 78 79 23 24 -25 33 -34 -35 142 0
77 78 79 23 24 -25 -33 34 35 102 0
77 78 79 23 24 -25 -33 34 -35 162 0
77 78 79 23 24 -25 -33 -34 35 95 0
77 78 79 23 24 -25 -33 -34 -35 80 0
77 78 79 23 -24 25 33 34 35 80 0
77 78 79 23 -24 25 33 34 -35 148 0
77 78 79 23 -24 25 33 -34 35 148 0
77 78 79 23 -24 25 33 -34 -35 142 0
77 78 79 23 -24 25 -33 34 35 92 0
77 78 79 23 -24 25 -33 34 -35 93 0
77 78 79 23 -24 25 -33 -34 35 136 0
77 78 79 23 -24 25 -33 -34 -35 80 0
77 78 79 23 -24 -25 33 34 35 81 0
77 78 79 23 -24 -25 33 34 -35 97 0
77 78 79 23 -24 -25 33 -34 35 159 0
77 78 79 23 -24 -25 33 -34 -35 100 0
77 78 79 23 -24 -25 -33 34 35 167 0
77 78 79 23 -24 -25 -33 34 -35 142 0
77 78 79 23 -24 -25 -33 -34 35 116 0
77 78 79 23 -24 -25 -33 -34 -35 105 0
77 78 79 -23 24 25 33 34 35 127 0
77 78 79 -23 24 25 33 34 -35 161 0
77 78 79 -23 24 25 33 -34 35 156 0
77 78 79 -23 24 25 33 -34 -35 150 0
77 78 79 -23 24 25 -33 34 35 99 0
77 78 79 -23 24 25 -33 34 -35 101 0
77 78 79 -23 24 25 -33 -34 35 95 0
77 78 79 -23 24 25 -33 -34 -35 80 0
77 78 79 -23 24 -25 33 34 35 80 0
77 78 79 -23 24 -25 33 34 -35 139 0
77 78 79 -23 24 -25 33 -34 35 115 0
77 78 79 -23 24 -25 33 -34 -35 103 0
77 78 79 -23 24 -25 -33 34 35 142 0
77 78 79 -23 24 -25 -33 34 -35 84 0
77 78 79 -23 24 -25 -33 -34 35 138 0
77 78 79 -23 24 -25 -33 -34 -35 80 0
77 78 79 -23 -24 25 33 34 35 80 0
77 78 79 -23 -24 25 33 34 -35 163 0
77 78 79 -23 -24 25 33 -34 35 137 0
77 78 79 -23 -24 25 33 -34 -35 97 0
77 78 79 -23 -24 25 -33 34 35 140 0
77 78 79 -23 -24 25 -33 34 -35 105 0
77 78 79 -23 -24 25 -33 -34 35 164 0
77 78 79 -23 -24 25 -33 -34 -35 80 0
77 78 79 -23 -24 -25 33 34 35 80 0
77 78 79 -23 -24 -25 33 34 -35 80 0
77 78 79 -23 -24 -25 33 -34 35 163 0
77 78 79 -23 -24 -25 33 -34 -35 80 0
77 78 79 -23 -24 -25 -33 34 35 117 0
77 78 79 -23 -24 -25 -33 34 -35 162 0
77 78 79 -23 -24 -25 -33 -34 35 164 0
77 78 79 -23 -24 -25 -33 -34 -35 80 0
77 78 -79 23 24 25 33 34 35 80 0
77 78 -79 23 24 25 33 34 -35 106 0
77 78 -79 23 24 25 33 -34 35 81 0
77 78 -79 23 24 25 33 -34 -35 163 0
77 78 -79 23 24 25 -33 34 35 163 0
77 78 -79 23 24 25 -33 34 -35 162 0
77 78 -79 23 24 25 -33 -34 35 80 0
77 78 -79 23 24 25 -33 -34 -35 80 0
77 78 -79 23 24 -25 33 34 35 80 0
77 78 -79 23 24 -25 33 34 -35 80 0
77 78 -79 23 24 -25 33 -34 35 82 0
77 78 -79 23 24 -25 33 -34 -35 142 0
77 78 -79 23 24 -25 -33 34 35 102 0
77 78 -79 23 24 -25 -33 34 -35 162 0
77 78 -79 23 24 -25 -33 -34 35 95 0
77 78 -79 23 24 -25 -33 -34 -35 80 0
77 78 -79 23 -24 25 33 34 35 80 0
77 78 -79 23 -24 25 33 34 -35 83 0
77 78 -79 23 -24 25 33 -34 35 148 0
77 78 -79 23 -24 25 33 -34 -35 142 0
77 78 -79 23 -24 25 -33 34 35 92 0
77 78 -79 23 -24 25 -33 34 -35 93 0
77 78 -79 23 -24 25 -33 -34 35 136 0
77 78 -79 23 -24 25 -33 -34 -35 80 0
77 78 -79 23 -24 -25 33 34 35 161 0
77 78 -79 23 -24 -25 33 34 -35 128 0
77 78 -79 23 -24 -25 33 -34 35 154 0
77 78 -79 23 -24 -25 33 -34 -35 100 0
77 78 -79 23 -24 -25 -33 34 35 167 0
77 78 -79 23 -24 -25 -33 34 -35 142 0
77 78 -79 23 -24 -25 -33 -34 35 116 0
77 78 -79 23 -24 -25 -33 -34 -35 105 0
77 78 -79 -23 24 25 33 34 35 118 0
77 78 -79 -23 24 25 33 34 -35 81 0
77 78 -79 -23 24 25 33 -34 35 156 0
77 78 -79 -23 24 25 33 -34 -35 150 0
77 78 -79 -23 24 25 -33 34 35 99 0
77 78 -79 -23 24 25 -33 34 -35 101 0
77 78 -79 -23 24 25 -33 -34 35 95 0
77 78 -79 -23 24 25 -33 -34 -35 80 0
77 78 -79 -23 24 -25 33 34 35 80 0
77 78 -79 -23 24 -25 33 34 -35 109 0
77 78 -79 -23 24 -25 33 -34 35 115 0
77 78 -79 -23 24 -25 33 -34 -35 103 0
77 78 -79 -23 24 -25 -33 34 35 142 0
77 78 -79 -23 24 -25 -33 34 -35 84 0
77 78 -79 -23 24 -25 -33 -34 35 138 0
77 78 -79 -23 24 -25 -33 -34 -35 80 0
77 78 -79 -23 -24 25 33 34 35 80 0
77 78 -79 -23 -24 25 33 34 -35 163 0
77 78 -79 -23 -24 25 33 -34 35 137 0
77 78 -79 -23 -24 25 33 -34 -35 97 0
77 78 -79 -23 -24 25 -33 34 35 140 0
77 78 -79 -23 -24 25 -33 34 -35 105 0
77 78 -79 -23 -24 25 -33 -34 35 164 0
77 78 -79 -23 -24 25 -33 -34 -35 80 0
77 78 -79 -23 -24 -25 33 34 35 80 0
77 78 -79 -23 -24 -25 33 34 -35 80 0
77 78 -79 -23 -24 -25 33 -34 35 163 0
77 78 -79 -23 -24 -25 33 -34 -35 80 0
77 78 -79 -23 -24 -25 -33 34 35 117 0
77 78 -79 -23 -24 -25 -33 34 -35 162 0
77 78 -79 -23 -24 -25 -33 -34 35 164 0
77 78 -79 -23 -24 -25 -33 -34 -35 80 0
77 -78 79 23 24 25 33 34 35 80 0
77 -78 79 23 24 25 33 34 -35 106 0
77 -78 79 23 24 25 33 -34 35 161 0
77 -78 79 23 24 25 33 -34 -35 87 0
77 -78 79 23 24 25 -33 34 35 163 0
77 -78 79 23 24 25 -33 34 -35 162 0
77 -78 79 23 24 25 -33 -34 35 80 0
77 -78 79 23 24 25 -33 -34 -35 80 0
77 -78 79 23 24 -25 33 34 35 80 0
77 -78 79 23 24 -25 33 34 -35 80 0
77 -78 79 23 24 -25 33 -34 35 82 0
77 -78 79 23 24 -25 33 -34 -35 110 0
77 -78 79 23 24 -25 -33 34 35 102 0
77 -78 79 23 24 -25 -33 34 -35 162 0
77 -78 79 23 24 -25 -33 -34 35 95 0
77 -78 79 23 24 -25 -33 -34 -35 80 0
77 -78 79 23 -24 25 33 34 35 80 0
77 -78 79 23 -24 25 33 34 -35 148 0
77 -78 79 23 -24 25 33 -34 35 141 0
77 -78 79 23 -24 25 33 -34 -35 110 0
77 -78 79 23 -24 25 -33 34 35 92 0
77 -78 79 23 -24 25 -33 34 -35 93 0
77 -78 79 23 -24 25 -33 -34 35 136 0
77 -78 79 23 -24 25 -33 -34 -35 80 0
77 -78 79 23 -24 -25 33 34 35 161 0
77 -78 79 23 -24 -25 33 34 -35 129 0
77 -78 79 23 -24 -25 33 -34 35 122 0
77 -78 79 23 -24 -25 33 -34 -35 100 0
77 -78 79 23 -24 -25 -33 34 35 167 0
77 -78 79 23 -24 -25 -33 34 -35 142 0
77 -78 79 23 -24 -25 -33 -34 35 116 0
77 -78 79 23 -24 -25 -33 -34 -35 105 0
77 -78 79 -23 24 25 33 34 35 118 0
77 -78 79 -23 24 25 33 34 -35 161 0
77 -78 79 -23 24 25 33 -34 35 168 0
77 -78 79 -23 24 25 33 -34 -35 150 0
77 -78 79 -23 24 25 -33 34 35 99 0
77 -78 79 -23 24 25 -33 34 -35 101 0
77 -78 79 -23 24 25 -33 -34 35 95 0
77 -78 79 -23 24 25 -33 -34 -35 80 0
77 -78 79 -23 24 -25 33 34 35 80 0
77 -78 79 -23 24 -25 33 34 -35 88 0
77 -78 79 -23 24 -25 33 -34 35 169 0
77 -78 79 -23 24 -25 33 -34 -35 103 0
77 -78 79 -23 24 -25 -33 34 35 142 0
77 -78 79 -23 24 -25 -33 34 -35 84 0
77 -78 79 -23 24 -25 -33 -34 35 138 0
77 -78 79 -23 24 -25 -33 -34 -35 80 0
77 -78 79 -23 -24 25 33 34 35 80 0
77 -78 79 -23 -24 25 33 34 -35 87 0
77 -78 79 -23 -24 25 33 -34 35 143 0
77 -78 79 -23 -24 25 33 -34 -35 97 0
77 -78 79 -23 -24 25 -33 34 35 140 0
77 -78 79 -23 -24 25 -33 34 -35 105 0
77 -78 79 -23 -24 25 -33 -34 35 164 0
77 -78 79 -23 -24 25 -33 -34 -35 80 0
77 -78 79 -23 -24 -25 33 34 35 80 0
77 -78 79 -23 -24 -25 33 34 -35 80 0
77 -78 79 -23 -24 -25 33 -34 35 163 0
77 -78 79 -23 -24 -25 33 -34 -35 80 0
77 -78 79 -23 -24 -25 -33 34 35 117 0
77 -78 79 -23 -24 -25 -33 34 -35 162 0
77 -78 79 -23 -24 -25 -33 -34 35 164 0
77 -78 79 -23 -24 -25 -33 -34 -35 80 0
77 -78 -79 23 24 25 33 34 35 80 0
77 -78 -79 23 24 25 33 34 -35 106 0
77 -78 -79 23 24 25 33 -34 35 161 0
77 -78 -79 23 24 25 33 -34 -35 163 0
77 -78 -79 23 24 25 -33 34 35 87 0
77 -78 -79 23 24 25 -33 34 -35 162 0
77 -78 -79 23 24 25 -33 -34 35 80 0
77 -78 -79 23 24 25 -33 -34 -35 80 0
77 -78 -79 23 24 -25 33 34 35 80 0
77 -78 -79 23 24 -25 33 34 -35 80 0
77 -78 -79 23 24 -25 33 -34 35 94 0
77 -78 -79 23 24 -25 33 -34 -35 135 0
77 -78 -79 23 24 -25 -33 34 35 85 0
77 -78 -79 23 24 -25 -33 34 -35 162 0
77 -78 -79 23 24 -25 -33 -34 35 95 0
77 -78 -79 23 24 -25 -33 -34 -35 80 0
77 -78 -79 23 -24 25 33 34 35 80 0
77 -78 -79 23 -24 25 33 34 -35 148 0
77 -78 -79 23 -24 25 33 -34 35 148 0
77 -78 -79 23 -24 25 33 -34 -35 135 0
77 -78 -79 23 -24 25 -33 34 35 144 0
77 -78 -79 23 -24 25 -33 34 -35 93 0
77 -78 -79 23 -24 25 -33 -34 35 136 0
77 -78 -79 23 -24 25 -33 -34 -35 80 0
77 -78 -79 23 -24 -25 33 34 35 161 0
77 -78 -79 23 -24 -25 33 34 -35 97 0
77 -78 -79 23 -24 -25 33 -34 35 159 0
77 -78 -79 23 -24 -25 33 -34 -35 131 0
77 -78 -79 23 -24 -25 -33 34 35 157 0
77 -78 -79 23 -24 -25 -33 34 -35 142 0
77 -78 -79 23 -24 -25 -33 -34 35 116 0
77 -78 -79 23 -24 -25 -33 -34 -35 105 0
77 -78 -79 -23 24 25 33 34 35 118 0
77 -78 -79 -23 24 25 33 34 -35 161 0
77 -78 -79 -23 24 25 33 -34 35 124 0
77 -78 -79 -23 24 25 33 -34 -35 98 0
77 -78 -79 -23 24 25 -33 34 35 99 0
77 -78 -79 -23 24 25 -33 34 -35 101 0
77 -78 -79 -23 24 25 -33 -34 35 95 0
77 -78 -79 -23 24 25 -33 -34 -35 80 0
77 -78 -79 -23 24 -25 33 34 35 80 0
77 -78 -79 -23 24 -25 33 34 -35 139 0
77 -78 -79 -23 24 -25 33 -34 35 96 0
77 -78 -79 -23 24 -25 33 -34 -35 146 0
77 -78 -79 -23 24 -25 -33 34 35 142 0
77 -78 -79 -23 24 -25 -33 34 -35 84 0
77 -78 -79 -23 24 -25 -33 -34 35 138 0
77 -78 -79 -23 24 -25 -33 -34 -35 80 0
77 -78 -79 -23 -24 25 33 34 35 80 0
77 -78 -79 -23 -24 25 33 34 -35 163 0
77 -78 -79 -23 -24 25 33 -34 35 132 0
77 -78 -79 -23 -24 25 33 -34 -35 86 0
77 -78 -79 -23 -24 25 -33 34 35 140 0
77 -78 -79 -23 -24 25 -33 34 -35 105 0
77 -78 -79 -23 -24 25 -33 -34 35 164 0
77 -78 -79 -23 -24 25 -33 -34 -35 80 0
77 -78 -79 -23 -24 -25 33 34 35 80 0
77 -78 -79 -23 -24 -25 33 34 -35 80 0
77 -78 -79 -23 -24 -25 33 -34 35 87 0
77 -78 -79 -23 -24 -25 33 -34 -35 80 0
77 -78 -79 -23 -24 -25 -33 34 35 117 0
77 -78 -79 -23 -24 -25 -33 34 -35 162 0
77 -78 -79 -23 -24 -25 -33 -34 35 164 0
77 -78 -79 -23 -24 -25 -33 -34 -35 80 0
-77 78 79 23 24 25 33 34 35 80 0
-77 78 79 23 24 25 33 34 -35 106 0
-77 78 79 23 24 25 33 -34 35 161 0
-77 78 79 23 24 25 33 -34 -35 163 0
-77 78 79 23 24 25 -33 34 35 163 0
-77 78 79 23 24 25 -33 34 -35 89 0
-77 78 79 23 24 25 -33 -34 35 80 0
-77 78 79 23 24 25 -33 -34 -35 80 0
-77 78 79 23 24 -25 33 34 35 80 0
-77 78 79 23 24 -25 33 34 -35 80 0
-77 78 79 23 24 -25 33 -34 35 94 0
-77 78 79 23 24 -25 33 -34 -35 142 0
-77 78 79 23 24 -25 -33 34 35 119 0
-77 78 79 23 24 -25 -33 34 -35 162 0
-77 78 79 23 24 -25 -33 -34 35 95 0
-77 78 79 23 24 -25 -33 -34 -35 80 0
-77 78 79 23 -24 25 33 34 35 80 0
-77 78 79 23 -24 25 33 34 -35 148 0
-77 78 79 23 -24 25 33 -34 35 148 0
-77 78 79 23 -24 25 33 -34 -35 142 0
-77 78 79 23 -24 25 -33 34 35 123 0
-77 78 79 23 -24 25 -33 34 -35 112 0
-77 78 79 23 -24 25 -33 -34 35 136 0
-77 78 79 23 -24 25 -33 -34 -35 80 0
-77 78 79 23 -24 -25 33 34 35 161 0
-77 78 79 23 -24 -25 33 34 -35 97 0
-77 78 79 23 -24 -25 33 -34 35 159 0
-77 78 79 23 -24 -25 33 -34 -35 107 0
-77 78 79 23 -24 -25 -33 34 35 166 0
-77 78 79 23 -24 -25 -33 34 -35 121 0
-77 78 79 23 -24 -25 -33 -34 35 116 0
-77 78 79 23 -24 -25 -33 -34 -35 105 0
-77 78 79 -23 24 25 33 34 35 118 0
-77 78 79 -23 24 25 33 34 -35 161 0
-77 78 79 -23 24 25 33 -34 35 156 0
-77 78 79 -23 24 25 33 -34 -35 155 0
-77 78 79 -23 24 25 -33 34 35 133 0
-77 78 79 -23 24 25 -33 34 -35 101 0
-77 78 79 -23 24 25 -33 -34 35 95 0
-77 78 79 -23 24 25 -33 -34 -35 80 0
-77 78 79 -23 24 -25 33 34 35 80 0
-77 78 79 -23 24 -25 33 34 -35 139 0
-77 78 79 -23 24 -25 33 -34 35 115 0
-77 78 79 -23 24 -25 33 -34 -35 146 0
-77 78 79 -23 24 -25 -33 34 35 130 0
-77 78 79 -23 24 -25 -33 34 -35 84 0
-77 78 79 -23 24 -25 -33 -34 35 138 0
-77 78 79 -23 24 -25 -33 -34 -35 80 0
-77 78 79 -23 -24 25 33 34 35 80 0
-77 78 79 -23 -24 25 33 34 -35 163 0
-77 78 79 -23 -24 25 33 -34 35 137 0
-77 78 79 -23 -24 25 33 -34 -35 145 0
-77 78 79 -23 -24 25 -33 34 35 134 0
-77 78 79 -23 -24 25 -33 34 -35 105 0
-77 78 79 -23 -24 25 -33 -34 35 164 0
-77 78 79 -23 -24 25 -33 -34 -35 80 0
-77 78 79 -23 -24 -25 33 34 35 80 0
-77 78 79 -23 -24 -25 33 34 -35 80 0
-77 78 79 -23 -24 -25 33 -34 35 163 0
-77 78 79 -23 -24 -25 33 -34 -35 80 0
-77 78 79 -23 -24 -25 -33 34 35 117 0
-77 78 79 -23 -24 -25 -33 34 -35 162 0
-77 78 79 -23 -24 -25 -33 -34 35 164 0
-77 78 79 -23 -24 -25 -33 -34 -35 80 0
-77 78 -79 23 24 25 33 34 35 80 0
-77 78 -79 23 24 25 33 34 -35 106 0
-77 78 -79 23 24 25 33 -34 35 161 0
-77 78 -79 23 24 25 33 -34 -35 163 0
-77 78 -79 23 24 25 -33 34 35 163 0
-77 78 -79 23 24 25 -33 34 -35 162 0
-77 78 -79 23 24 25 -33 -34 35 80 0
-77 78 -79 23 24 25 -33 -34 -35 80 0
-77 78 -79 23 24 -25 33 34 35 80 0
-77 78 -79 23 24 -25 33 34 -35 80 0
-77 78 -79 23 24 -25 33 -34 35 94 0
-77 78 -79 23 24 -25 33 -34 -35 142 0
-77 78 -79 23 24 -25 -33 34 35 102 0
-77 78 -79 23 24 -25 -33 34 -35 89 0
-77 78 -79 23 24 -25 -33 -34 35 147 0
-77 78 -79 23 24 -25 -33 -34 -35 80 0
-77 78 -79 23 -24 25 33 34 35 80 0
-77 78 -79 23 -24 25 33 34 -35 148 0
-77 78 -79 23 -24 25 33 -34 35 148 0
-77 78 -79 23 -24 25 33 -34 -35 142 0
-77 78 -79 23 -24 25 -33 34 35 92 0
-77 78 -79 23 -24 25 -33 34 -35 108 0
-77 78 -79 23 -24 25 -33 -34 35 111 0
-77 78 -79 23 -24 25 -33 -34 -35 80 0
-77 78 -79 23 -24 -25 33 34 35 161 0
-77 78 -79 23 -24 -25 33 34 -35 97 0
-77 78 -79 23 -24 -25 33 -34 35 159 0
-77 78 -79 23 -24 -25 33 -34 -35 100 0
-77 78 -79 23 -24 -25 -33 34 35 152 0
-77 78 -79 23 -24 -25 -33 34 -35 104 0
-77 78 -79 23 -24 -25 -33 -34 35 116 0
-77 78 -79 23 -24 -25 -33 -34 -35 105 0
-77 78 -79 -23 24 25 33 34 35 118 0
-77 78 -79 -23 24 25 33 34 -35 161 0
-77 78 -79 -23 24 25 33 -34 35 156 0
-77 78 -79 -23 24 25 33 -34 -35 150 0
-77 78 -79 -23 24 25 -33 34 35 153 0
-77 78 -79 -23 24 25 -33 34 -35 158 0
-77 78 -79 -23 24 25 -33 -34 35 95 0
-77 78 -79 -23 24 25 -33 -34 -35 80 0
-77 78 -79 -23 24 -25 33 34 35 80 0
-77 78 -79 -23 24 -25 33 34 -35 139 0
-77 78 -79 -23 24 -25 33 -34 35 115 0
-77 78 -79 -23 24 -25 33 -34 -35 103 0
-77 78 -79 -23 24 -25 -33 34 35 113 0
-77 78 -79 -23 24 -25 -33 34 -35 91 0
-77 78 -79 -23 24 -25 -33 -34 35 138 0
-77 78 -79 -23 24 -25 -33 -34 -35 80 0
-77 78 -79 -23 -24 25 33 34 35 80 0
-77 78 -79 -23 -24 25 33 34 -35 163 0
-77 78 -79 -23 -24 25 33 -34 35 137 0
-77 78 -79 -23 -24 25 33 -34 -35 97 0
-77 78 -79 -23 -24 25 -33 34 35 114 0
-77 78 -79 -23 -24 25 -33 34 -35 105 0
-77 78 -79 -23 -24 25 -33 -34 35 164 0
-77 78 -79 -23 -24 25 -33 -34 -35 80 0
-77 78 -79 -23 -24 -25 33 34 35 80 0
-77 78 -79 -23 -24 -25 33 34 -35 80 0
-77 78 -79 -23 -24 -25 33 -34 35 163 0
-77 78 -79 -23 -24 -25 33 -34 -35 80 0
-77 78 -79 -23 -24 -25 -33 34 35 151 0
-77 78 -79 -23 -24 -25 -33 34 -35 89 0
-77 78 -79 -23 -24 -25 -33 -34 35 164 0
-77 78 -79 -23 -24 -25 -33 -34 -35 80 0
-77 -78 79 23 24 25 33 34 35 80 0
-77 -78 79 23 24 25 33 34 -35 106 0
-77 -78 79 23 24 25 33 -34 35 161 0
-77 -78 79 23 24 25 33 -34 -35 163 0
-77 -78 79 23 24 25 -33 34 35 163 0
-77 -78 79 23 24 25 -33 34 -35 162 0
-77 -78 79 23 24 25 -33 -34 35 80 0
-77 -78 79 23 24 25 -33 -34 -35 80 0
-77 -78 79 23 24 -25 33 34 35 80 0
-77 -78 79 23 24 -25 33 34 -35 80 0
-77 -78 79 23 24 -25 33 -34 35 94 0
-77 -78 79 23 24 -25 33 -34 -35 142 0
-77 -78 79 23 24 -25 -33 34 35 102 0
-77 -78 79 23 24 -25 -33 34 -35 162 0
-77 -78 79 23 24 -25 -33 -34 35 147 0
-77 -78 79 23 24 -25 -33 -34 -35 80 0
-77 -78 79 23 -24 25 33 34 35 80 0
-77 -78 79 23 -24 25 33 34 -35 148 0
-77 -78 79 23 -24 25 33 -34 35 148 0
-77 -78 79 23 -24 25 33 -34 -35 142 0
-77 -78 79 23 -24 25 -33 34 35 92 0
-77 -78 79 23 -24 25 -33 34 -35 93 0
-77 -78 79 23 -24 25 -33 -34 35 90 0
-77 -78 79 23 -24 25 -33 -34 -35 80 0
-77 -78 79 23 -24 -25 33 34 35 161 0
-77 -78 79 23 -24 -25 33 34 -35 97 0
-77 -78 79 23 -24 -25 33 -34 35 159 0
-77 -78 79 23 -24 -25 33 -34 -35 100 0
-77 -78 79 23 -24 -25 -33 34 35 167 0
-77 -78 79 23 -24 -25 -33 34 -35 142 0
-77 -78 79 23 -24 -25 -33 -34 35 149 0
-77 -78 79 23 -24 -25 -33 -34 -35 105 0
-77 -78 79 -23 24 25 33 34 35 118 0
-77 -78 79 -23 24 25 33 34 -35 161 0
-77 -78 79 -23 24 25 33 -34 35 156 0
-77 -78 79 -23 24 25 33 -34 -35 150 0
-77 -78 79 -23 24 25 -33 34 35 99 0
-77 -78 79 -23 24 25 -33 34 -35 160 0
-77 -78 79 -23 24 25 -33 -34 35 147 0
-77 -78 79 -23 24 25 -33 -34 -35 80 0
-77 -78 79 -23 24 -25 33 34 35 80 0
-77 -78 79 -23 24 -25 33 34 -35 139 0
-77 -78 79 -23 24 -25 33 -34 35 115 0
-77 -78 79 -23 24 -25 33 -34 -35 103 0
-77 -78 79 -23 24 -25 -33 34 35 142 0
-77 -78 79 -23 24 -25 -33 34 -35 84 0
-77 -78 79 -23 24 -25 -33 -34 35 120 0
-77 -78 79 -23 24 -25 -33 -34 -35 80 0
-77 -78 79 -23 -24 25 33 34 35 80 0
-77 -78 79 -23 -24 25 33 34 -35 163 0
-77 -78 79 -23 -24 25 33 -34 35 137 0
-77 -78 79 -23 -24 25 33 -34 -35 97 0
-77 -78 79 -23 -24 25 -33 34 35 140 0
-77 -78 79 -23 -24 25 -33 34 -35 125 0
-77 -78 79 -23 -24 25 -33 -34 35 164 0
-77 -78 79 -23 -24 25 -33 -34 -35 80 0
-77 -78 79 -23 -24 -25 33 34 35 80 0
-77 -78 79 -23 -24 -25 33 34 -35 80 0
-77 -78 79 -23 -24 -25 33 -34 35 163 0
-77 -78 79 -23 -24 -25 33 -34 -35 80 0
-77 -78 79 -23 -24 -25 -33 34 35 117 0
-77 -78 79 -23 -24 -25 -33 34 -35 162 0
-77 -78 79 -23 -24 -25 -33 -34 35 164 0
-77 -78 79 -23 -24 -25 -33 -34 -35 80 0
-77 -78 -79 23 24 25 33 34 35 80 0
-77 -78 -79 23 24 25 33 34 -35 106 0
-77 -78 -79 23 24 25 33 -34 35 161 0
-77 -78 -79 23 24 25 33 -34 -35 163 0
-77 -78 -79 23 24 25 -33 34 35 163 0
-77 -78 -79 23 24 25 -33 34 -35 162 0
-77 -78 -79 23 24 25 -33 -34 35 80 0
-77 -78 -79 23 24 25 -33 -34 -35 80 0
-77 -78 -79 23 24 -25 33 34 35 80 0
-77 -78 -79 23 24 -25 33 34 -35 80 0
-77 -78 -79 23 24 -25 33 -34 35 94 0
-77 -78 -79 23 24 -25 33 -34 -35 142 0
-77 -78 -79 23 24 -25 -33 34 35 102 0
-77 -78 -79 23 24 -25 -33 34 -35 162 0
-77 -78 -79 23 24 -25 -33 -34 35 95 0
-77 -78 -79 23 24 -25 -33 -34 -35 80 0
-77 -78 -79 23 -24 25 33 34 35 80 0
-77 -78 -79 23 -24 25 33 34 -35 148 0
-77 -78 -79 23 -24 25 33 -34 35 148 0
-77 -78 -79 23 -24 25 33 -34 -35 142 0
-77 -78 -79 23 -24 25 -33 34 35 92 0
-77 -78 -79 23 -24 25 -33 34 -35 93 0
-77 -78 -79 23 -24 25 -33 -34 35 136 0
-77 -78 -79 23 -24 25 -33 -34 -35 80 0
-77 -78 -79 23 -24 -25 33 34 35 161 0
-77 -78 -79 23 -24 -25 33 34 -35 97 0
-77 -78 -79 23 -24 -25 33 -34 35 159 0
-77 -78 -79 23 -24 -25 33 -34 -35 100 0
-77 -78 -79 23 -24 -25 -33 34 35 167 0
-77 -78 -79 23 -24 -25 -33 34 -35 142 0
-77 -78 -79 23 -24 -25 -33 -34 35 116 0
-77 -78 -79 23 -24 -25 -33 -34 -35 125 0
-77 -78 -79 -23 24 25 33 34 35 118 0
-77 -78 -79 -23 24 25 33 34 -35 161 0
-77 -78 -79 -23 24 25 33 -34 35 156 0
-77 -78 -79 -23 24 25 33 -34 -35 150 0
-77 -78 -79 -23 24 25 -33 34 35 99 0
-77 -78 -79 -23 24 25 -33 34 -35 101 0
-77 -78 -79 -23 24 25 -33 -34 35 147 0
-77 -78 -79 -23 24 25 -33 -34 -35 80 0
-77 -78 -79 -23 24 -25 33 34 35 80 0
-77 -78 -79 -23 24 -25 33 34 -35 139 0
-77 -78 -79 -23 24 -25 33 -34 35 115 0
-77 -78 -79 -23 24 -25 33 -34 -35 103 0
-77 -78 -79 -23 24 -25 -33 34 35 142 0
-77 -78 -79 -23 24 -25 -33 34 -35 84 0
-77 -78 -79 -23 24 -25 -33 -34 35 138 0
-77 -78 -79 -23 24 -25 -33 -34 -35 80 0
-77 -78 -79 -23 -24 25 33 34 35 80 0
-77 -78 -79 -23 -24 25 33 34 -35 163 0
-77 -78 -79 -23 -24 25 33 -34 35 137 0
-77 -78 -79 -23 -24 25 33 -34 -35 97 0
-77 -78 -79 -23 -24 25 -33 34 35 140 0
-77 -78 -79 -23 -24 25 -33 34 -35 105 0
-77 -78 -79 -23 -24 25 -33 -34 35 165 0
-77 -78 -79 -23 -24 25 -33 -34 -35 80 0
-77 -78 -79 -23 -24 -25 33 34 35 80 0
-77 -78 -79 -23 -24 -25 33 34 -35 80 0
-77 -78 -79 -23 -24 -25 33 -34 35 163 0
-77 -78 -79 -23 -24 -25 33 -34 -35 80 0
-77 -78 -79 -23 -24 -25 -33 34 35 117 0
-77 -78 -79 -23 -24 -25 -33 34 -35 162 0
-77 -78 -79 -23 -24 -25 -33 -34 35 165 0
-77 -78 -79 -23 -24 -25 -33 -34 -35 80 0
